false true true
presolving:
presolving (0 rounds: 0 fast, 0 medium, 0 exhaustive):
 0 deleted vars, 0 deleted constraints, 0 added constraints, 0 tightened bounds, 0 added holes, 0 changed sides, 0 changed coefficients
 0 implications, 0 cliques
presolved problem has 49 variables (49 bin, 0 int, 0 impl, 0 cont) and 42 constraints
     42 constraints of type <linear>
transformed objective value is always integral (scale: 1)
Presolving Time: 0.00

 time | node  | left  |LP iter|LP it/n|mem/heur|mdpt |vars |cons |rows |cuts |sepa|confs|strbr|  dualbound   | primalbound  |  gap   | compl. 
p 0.0s|     1 |     0 |     0 |     - |shiftand|   0 |  49 |  42 |  42 |   0 |  0 |   0 |   0 |      --      | 7.000000e+00 |    Inf | unknown
 time | node  | left  |LP iter|LP it/n|mem/heur|mdpt |vars |cons |rows |cuts |sepa|confs|strbr|  dualbound   | primalbound  |  gap   | compl. 
  0.1s|     1 |     0 |    31 |     - |  3925k |   0 |1043 |  42 |  42 |   0 |  0 |   0 |   0 |-1.780000e+02 | 7.000000e+00 |    Inf | unknown
 time | node  | left  |LP iter|LP it/n|mem/heur|mdpt |vars |cons |rows |cuts |sepa|confs|strbr|  dualbound   | primalbound  |  gap   | compl. 
 12.1s|     1 |     0 |   516 |     - |    10M |   0 |2743 |  42 |  42 |   0 |  0 |   0 |   0 | 6.000000e+00 | 7.000000e+00 |  16.67%| unknown
 time | node  | left  |LP iter|LP it/n|mem/heur|mdpt |vars |cons |rows |cuts |sepa|confs|strbr|  dualbound   | primalbound  |  gap   | compl. 
 12.4s|     1 |     2 |  1382 |     - |    10M |   0 |2743 |  42 |  42 |   0 |  1 |   0 |   0 | 6.000000e+00 | 7.000000e+00 |  16.67%| unknown
 time | node  | left  |LP iter|LP it/n|mem/heur|mdpt |vars |cons |rows |cuts |sepa|confs|strbr|  dualbound   | primalbound  |  gap   | compl. 
 12.4s|     2 |     3 |  1385 |   3.0 |    11M |   1 |2743 |  42 |  42 |   0 |  1 |   0 |   0 | 6.000000e+00 | 7.000000e+00 |  16.67%| unknown
 time | node  | left  |LP iter|LP it/n|mem/heur|mdpt |vars |cons |rows |cuts |sepa|confs|strbr|  dualbound   | primalbound  |  gap   | compl. 
 12.4s|     3 |     4 |  1419 |  18.5 |    11M |   2 |2743 |  42 |  42 |   0 |  1 |   0 |   0 | 6.000000e+00 | 7.000000e+00 |  16.67%| unknown
 time | node  | left  |LP iter|LP it/n|mem/heur|mdpt |vars |cons |rows |cuts |sepa|confs|strbr|  dualbound   | primalbound  |  gap   | compl. 
 12.4s|     4 |     5 |  1436 |  18.0 |    11M |   3 |2743 |  42 |  42 |   0 |  1 |   0 |   0 | 6.000000e+00 | 7.000000e+00 |  16.67%| unknown
 time | node  | left  |LP iter|LP it/n|mem/heur|mdpt |vars |cons |rows |cuts |sepa|confs|strbr|  dualbound   | primalbound  |  gap   | compl. 
 12.5s|     5 |     6 |  1437 |  13.8 |    11M |   4 |2743 |  42 |  42 |   0 |  1 |   0 |   0 | 6.000000e+00 | 7.000000e+00 |  16.67%| unknown
 time | node  | left  |LP iter|LP it/n|mem/heur|mdpt |vars |cons |rows |cuts |sepa|confs|strbr|  dualbound   | primalbound  |  gap   | compl. 
 12.5s|     6 |     7 |  1438 |  11.2 |    11M |   5 |2743 |  42 |  42 |   0 |  1 |   0 |   0 | 6.000000e+00 | 7.000000e+00 |  16.67%| unknown
 time | node  | left  |LP iter|LP it/n|mem/heur|mdpt |vars |cons |rows |cuts |sepa|confs|strbr|  dualbound   | primalbound  |  gap   | compl. 
 12.5s|     7 |     8 |  1464 |  13.7 |    11M |   6 |2743 |  42 |  42 |   0 |  1 |   0 |   0 | 6.000000e+00 | 7.000000e+00 |  16.67%| unknown
 time | node  | left  |LP iter|LP it/n|mem/heur|mdpt |vars |cons |rows |cuts |sepa|confs|strbr|  dualbound   | primalbound  |  gap   | compl. 
 12.5s|     8 |     9 |  1479 |  13.9 |    11M |   7 |2743 |  42 |  42 |   0 |  1 |   0 |   0 | 6.000000e+00 | 7.000000e+00 |  16.67%| unknown
 time | node  | left  |LP iter|LP it/n|mem/heur|mdpt |vars |cons |rows |cuts |sepa|confs|strbr|  dualbound   | primalbound  |  gap   | compl. 
 12.8s|     9 |    10 |  2107 |  90.6 |    12M |   7 |2743 |  42 |  42 |   0 |  1 |   0 |   0 | 6.000000e+00 | 7.000000e+00 |  16.67%| unknown
 time | node  | left  |LP iter|LP it/n|mem/heur|mdpt |vars |cons |rows |cuts |sepa|confs|strbr|  dualbound   | primalbound  |  gap   | compl. 
 12.8s|    10 |    11 |  2157 |  86.1 |    12M |   7 |2743 |  42 |  42 |   0 |  1 |   0 |   0 | 6.000000e+00 | 7.000000e+00 |  16.67%| unknown
 time | node  | left  |LP iter|LP it/n|mem/heur|mdpt |vars |cons |rows |cuts |sepa|confs|strbr|  dualbound   | primalbound  |  gap   | compl. 
 12.9s|    11 |    12 |  2178 |  79.6 |    12M |   7 |2743 |  42 |  42 |   0 |  1 |   0 |   0 | 6.000000e+00 | 7.000000e+00 |  16.67%| unknown
 time | node  | left  |LP iter|LP it/n|mem/heur|mdpt |vars |cons |rows |cuts |sepa|confs|strbr|  dualbound   | primalbound  |  gap   | compl. 
 13.1s|    12 |    13 |  2205 |  74.8 |    12M |   7 |2743 |  42 |  42 |   0 |  1 |   0 |   0 | 6.000000e+00 | 7.000000e+00 |  16.67%| unknown
 time | node  | left  |LP iter|LP it/n|mem/heur|mdpt |vars |cons |rows |cuts |sepa|confs|strbr|  dualbound   | primalbound  |  gap   | compl. 
 13.2s|    13 |    14 |  2218 |  69.7 |    12M |   7 |2743 |  42 |  42 |   0 |  1 |   0 |   0 | 6.000000e+00 | 7.000000e+00 |  16.67%| unknown
 time | node  | left  |LP iter|LP it/n|mem/heur|mdpt |vars |cons |rows |cuts |sepa|confs|strbr|  dualbound   | primalbound  |  gap   | compl. 
 13.3s|    14 |    15 |  2223 |  64.7 |    12M |   7 |2743 |  42 |  42 |   0 |  1 |   0 |   0 | 6.000000e+00 | 7.000000e+00 |  16.67%| unknown
 time | node  | left  |LP iter|LP it/n|mem/heur|mdpt |vars |cons |rows |cuts |sepa|confs|strbr|  dualbound   | primalbound  |  gap   | compl. 
 13.5s|    15 |    16 |  2357 |  69.6 |    13M |   8 |3098 |  42 |  42 |   0 |  1 |   0 |   0 | 6.000000e+00 | 7.000000e+00 |  16.67%| unknown
 time | node  | left  |LP iter|LP it/n|mem/heur|mdpt |vars |cons |rows |cuts |sepa|confs|strbr|  dualbound   | primalbound  |  gap   | compl. 
 16.6s|    16 |    15 |  2608 |  81.7 |    15M |   8 |3736 |  42 |  42 |   0 |  0 |   0 |   0 | 6.000000e+00 | 7.000000e+00 |  16.67%| unknown
 time | node  | left  |LP iter|LP it/n|mem/heur|mdpt |vars |cons |rows |cuts |sepa|confs|strbr|  dualbound   | primalbound  |  gap   | compl. 
 16.8s|    17 |    16 |  2723 |  83.8 |    15M |   9 |3736 |  42 |  42 |   0 |  1 |   0 |   0 | 6.000000e+00 | 7.000000e+00 |  16.67%| unknown
 time | node  | left  |LP iter|LP it/n|mem/heur|mdpt |vars |cons |rows |cuts |sepa|confs|strbr|  dualbound   | primalbound  |  gap   | compl. 
 17.0s|    18 |    15 |  2775 |  81.9 |    15M |   9 |3766 |  42 |  42 |   0 |  0 |   0 |   0 | 6.000000e+00 | 7.000000e+00 |  16.67%| unknown
 time | node  | left  |LP iter|LP it/n|mem/heur|mdpt |vars |cons |rows |cuts |sepa|confs|strbr|  dualbound   | primalbound  |  gap   | compl. 
 17.2s|    19 |    16 |  2791 |  78.3 |    15M |  10 |3766 |  42 |  42 |   0 |  1 |   0 |   0 | 6.000000e+00 | 7.000000e+00 |  16.67%|   0.21%
 time | node  | left  |LP iter|LP it/n|mem/heur|mdpt |vars |cons |rows |cuts |sepa|confs|strbr|  dualbound   | primalbound  |  gap   | compl. 
 17.3s|    20 |    17 |  2810 |  75.2 |    15M |  11 |3766 |  42 |  42 |   0 |  1 |   0 |   0 | 6.000000e+00 | 7.000000e+00 |  16.67%|   0.21%
 time | node  | left  |LP iter|LP it/n|mem/heur|mdpt |vars |cons |rows |cuts |sepa|confs|strbr|  dualbound   | primalbound  |  gap   | compl. 
 17.5s|    21 |    18 |  2943 |  78.0 |    15M |  12 |3766 |  42 |  42 |   0 |  1 |   0 |   0 | 6.000000e+00 | 7.000000e+00 |  16.67%|   0.21%
 time | node  | left  |LP iter|LP it/n|mem/heur|mdpt |vars |cons |rows |cuts |sepa|confs|strbr|  dualbound   | primalbound  |  gap   | compl. 
 17.7s|    22 |    19 |  2961 |  75.2 |    15M |  12 |3766 |  42 |  42 |   0 |  1 |   0 |   0 | 6.000000e+00 | 7.000000e+00 |  16.67%|   0.21%
 time | node  | left  |LP iter|LP it/n|mem/heur|mdpt |vars |cons |rows |cuts |sepa|confs|strbr|  dualbound   | primalbound  |  gap   | compl. 
 18.0s|    23 |    20 |  2974 |  72.4 |    15M |  12 |3766 |  42 |  42 |   0 |  1 |   0 |   0 | 6.000000e+00 | 7.000000e+00 |  16.67%|   0.21%
 time | node  | left  |LP iter|LP it/n|mem/heur|mdpt |vars |cons |rows |cuts |sepa|confs|strbr|  dualbound   | primalbound  |  gap   | compl. 
 18.2s|    24 |    21 |  3023 |  71.3 |    16M |  13 |3945 |  42 |  42 |   0 |  1 |   0 |   0 | 6.000000e+00 | 7.000000e+00 |  16.67%|   0.21%
 time | node  | left  |LP iter|LP it/n|mem/heur|mdpt |vars |cons |rows |cuts |sepa|confs|strbr|  dualbound   | primalbound  |  gap   | compl. 
 18.5s|    25 |    20 |  3077 |  70.6 |    16M |  14 |3979 |  42 |  42 |   0 |  0 |   0 |   0 | 6.000000e+00 | 7.000000e+00 |  16.67%|   0.21%
 time | node  | left  |LP iter|LP it/n|mem/heur|mdpt |vars |cons |rows |cuts |sepa|confs|strbr|  dualbound   | primalbound  |  gap   | compl. 
 19.3s|    26 |    21 |  3168 |  71.4 |    17M |  14 |4135 |  42 |  42 |   0 |  1 |   0 |   0 | 6.000000e+00 | 7.000000e+00 |  16.67%|   0.22%
 time | node  | left  |LP iter|LP it/n|mem/heur|mdpt |vars |cons |rows |cuts |sepa|confs|strbr|  dualbound   | primalbound  |  gap   | compl. 
 20.1s|    27 |    22 |  3214 |  70.5 |    17M |  14 |4177 |  42 |  42 |   0 |  1 |   0 |   0 | 6.000000e+00 | 7.000000e+00 |  16.67%|   0.22%
 time | node  | left  |LP iter|LP it/n|mem/heur|mdpt |vars |cons |rows |cuts |sepa|confs|strbr|  dualbound   | primalbound  |  gap   | compl. 
 20.4s|    28 |    21 |  3262 |  69.6 |    17M |  15 |4191 |  42 |  42 |   0 |  0 |   0 |   0 | 6.000000e+00 | 7.000000e+00 |  16.67%|   0.22%
 time | node  | left  |LP iter|LP it/n|mem/heur|mdpt |vars |cons |rows |cuts |sepa|confs|strbr|  dualbound   | primalbound  |  gap   | compl. 
 22.0s|    29 |    22 |  3307 |  68.8 |    17M |  15 |4219 |  42 |  42 |   0 |  1 |   0 |   0 | 6.000000e+00 | 7.000000e+00 |  16.67%|   0.22%
 time | node  | left  |LP iter|LP it/n|mem/heur|mdpt |vars |cons |rows |cuts |sepa|confs|strbr|  dualbound   | primalbound  |  gap   | compl. 
 22.3s|    30 |    21 |  3339 |  67.5 |    17M |  16 |4220 |  42 |  42 |   0 |  0 |   0 |   0 | 6.000000e+00 | 7.000000e+00 |  16.67%|   0.22%
 time | node  | left  |LP iter|LP it/n|mem/heur|mdpt |vars |cons |rows |cuts |sepa|confs|strbr|  dualbound   | primalbound  |  gap   | compl. 
 23.2s|    31 |    20 |  3355 |  65.8 |    17M |  16 |4224 |  42 |  42 |   0 |  0 |   0 |   0 | 6.000000e+00 | 7.000000e+00 |  16.67%|   0.22%
 time | node  | left  |LP iter|LP it/n|mem/heur|mdpt |vars |cons |rows |cuts |sepa|confs|strbr|  dualbound   | primalbound  |  gap   | compl. 
 23.5s|    32 |    21 |  3396 |  65.0 |    17M |  16 |4224 |  42 |  42 |   0 |  1 |   0 |   0 | 6.000000e+00 | 7.000000e+00 |  16.67%|   0.22%
 time | node  | left  |LP iter|LP it/n|mem/heur|mdpt |vars |cons |rows |cuts |sepa|confs|strbr|  dualbound   | primalbound  |  gap   | compl. 
 24.3s|    33 |    22 |  3623 |  70.0 |    18M |  16 |4357 |  42 |  42 |   0 |  1 |   0 |   0 | 6.000000e+00 | 7.000000e+00 |  16.67%|   0.22%
 time | node  | left  |LP iter|LP it/n|mem/heur|mdpt |vars |cons |rows |cuts |sepa|confs|strbr|  dualbound   | primalbound  |  gap   | compl. 
 24.7s|    34 |    21 |  3649 |  68.7 |    19M |  16 |4396 |  42 |  42 |   0 |  0 |   0 |   0 | 6.000000e+00 | 7.000000e+00 |  16.67%|   0.22%
 time | node  | left  |LP iter|LP it/n|mem/heur|mdpt |vars |cons |rows |cuts |sepa|confs|strbr|  dualbound   | primalbound  |  gap   | compl. 
 25.0s|    35 |    22 |  3752 |  69.7 |    19M |  16 |4396 |  42 |  42 |   0 |  1 |   0 |   0 | 6.000000e+00 | 7.000000e+00 |  16.67%|   0.22%
 time | node  | left  |LP iter|LP it/n|mem/heur|mdpt |vars |cons |rows |cuts |sepa|confs|strbr|  dualbound   | primalbound  |  gap   | compl. 
r25.3s|    36 |     0 |  3763 |  68.0 |simplero|  16 |4396 |  42 |  42 |   0 |  0 |   0 |   0 | 6.000000e+00 | 6.000000e+00 |   0.00%| 100.00%

SCIP Status        : problem is solved [optimal solution found]
Solving Time (sec) : 25.32
Solving Nodes      : 36
Primal Bound       : +6.00000000000000e+00 (4 solutions)
Dual Bound         : +6.00000000000000e+00
Gap                : 0.00 %
Running with parallel: False bidir: True symbreak: True
Number of Nodes:  42
47.64199330525861% holds
starting cheapest insertion heuristic
Heuristic without TSP improvement:  7
Heuristic without TSP improvement time:  0.1
Heuristic Sol:  7
Heuristic total time:  0.1
[[17, 16, 34, 7, 9], [23, 11, 4, 12, 32, 0, 10], [29, 3, 2, 19, 24, 39, 14, 36, 18], [30, 25, 15, 22, 28, 6], [38, 13, 37, 27, 1, 35, 33, 5], [41, 20], [40, 21, 31, 8, 26]]
Instance path:  /home/htc/mghannam/SCRATCH/lccp-rust/data/t62_dantzig42.npcc
Timelimit:  7200
Heuristic without TSP improvement:  7
Heuristic without TSP improvement time:  0.1
Heuristic Sol:  7
Heuristic total time:  0.3
at 1 zero_duals: 35
Switching to elementary pricing
at1, LP obj: 7.0 n_added_paths: 994
updated lowerbound from -1e+20 to -178
at 1 zero_duals: 23
at1, LP obj: 7.0 n_added_paths: 198
at 1 zero_duals: 17
at1, LP obj: 6.75 n_added_paths: 494
at 1 zero_duals: 5
at1, LP obj: 6.411299435028249 n_added_paths: 427
at 1 zero_duals: 2
at1, LP obj: 6.023770190895741 n_added_paths: 254
at 1 zero_duals: 6
Switching to elementary pricing
at1, LP obj: 5.833333333333333 n_added_paths: 114
updated lowerbound from 1.0 to 3
at 1 zero_duals: 5
Switching to elementary pricing
at1, LP obj: 5.688172043010752 n_added_paths: 151
updated lowerbound from 3.0 to 4
at 1 zero_duals: 2
Switching to elementary pricing
at1, LP obj: 5.608552631578948 n_added_paths: 62
updated lowerbound from 4.0 to 6
Gap too small = 0, stopping pricing with lb = 6
Gap too small = 0, stopping pricing with lb = 6
Gap too small = 0, stopping pricing with lb = 6
Gap too small = 0, stopping pricing with lb = 6
Gap too small = 0, stopping pricing with lb = 6
Gap too small = 0, stopping pricing with lb = 6
Gap too small = 0, stopping pricing with lb = 6
Gap too small = 0, stopping pricing with lb = 6
Gap too small = 0, stopping pricing with lb = 6
Gap too small = 0, stopping pricing with lb = 6
Gap too small = 0, stopping pricing with lb = 6
Gap too small = 0, stopping pricing with lb = 6
Gap too small = 0, stopping pricing with lb = 6
Gap too small = 0, stopping pricing with lb = 6
at 28 zero_duals: 7
at28, LP obj: 6.08 n_added_paths: 355
Gap too small = 0, stopping pricing with lb = 6
at 29 zero_duals: 9
at29, LP obj: 6.576923076923077 n_added_paths: 375
at 29 zero_duals: 3
Switching to elementary pricing
at29, LP obj: 6.25 n_added_paths: 213
at 29 zero_duals: 6
at29, LP obj: 6.202830188679245 n_added_paths: 26
at 29 zero_duals: 2
Switching to elementary pricing
at29, LP obj: 6.1938718662952645 n_added_paths: 23
at 29 zero_duals: 3
Switching to elementary pricing
at29, LP obj: 6.17910447761194 n_added_paths: 1
updated lowerbound from 6.0 to 7
Gap too small = 0, stopping pricing with lb = 6
at 30 zero_duals: 40
Switching to elementary pricing
at30, LP obj: 1e+20 n_added_paths: 30
updated lowerbound from 6.0 to 100000000000000000000
at 30 zero_duals: 41
Switching to elementary pricing
at30, LP obj: 1e+20 n_added_paths: 0
updated lowerbound from 6.0 to 100000000000000000000
Gap too small = 0, stopping pricing with lb = 6
Gap too small = 0, stopping pricing with lb = 6
Gap too small = 0, stopping pricing with lb = 6
Gap too small = 0, stopping pricing with lb = 6
Gap too small = 0, stopping pricing with lb = 6
at 42 zero_duals: 4
at42, LP obj: 6.031538088306648 n_added_paths: 179
Gap too small = 0, stopping pricing with lb = 6
at 44 zero_duals: 40
Switching to elementary pricing
at44, LP obj: 1e+20 n_added_paths: 34
updated lowerbound from 6.0 to 100000000000000000000
at 44 zero_duals: 41
Switching to elementary pricing
at44, LP obj: 1e+20 n_added_paths: 0
updated lowerbound from 6.0 to 100000000000000000000
at 43 zero_duals: 5
Switching to elementary pricing
at43, LP obj: 6.11864406779661 n_added_paths: 156
Gap too small = 0, stopping pricing with lb = 6
at 46 zero_duals: 4
Switching to elementary pricing
at46, LP obj: 6.066548358473825 n_added_paths: 42
Gap too small = 0, stopping pricing with lb = 6
at 48 zero_duals: 39
Switching to elementary pricing
at48, LP obj: 1e+20 n_added_paths: 14
updated lowerbound from 6.0 to 100000000000000000000
at 48 zero_duals: 40
Switching to elementary pricing
at48, LP obj: 1e+20 n_added_paths: 0
updated lowerbound from 6.0 to 100000000000000000000
at 49 zero_duals: 8
Switching to elementary pricing
at49, LP obj: 6.0200000000000005 n_added_paths: 26
at 49 zero_duals: 5
Switching to elementary pricing
at49, LP obj: 6.001193792280143 n_added_paths: 1
at 49 zero_duals: 4
Switching to elementary pricing
at49, LP obj: 6.000717875089735 n_added_paths: 1
Gap too small = 0, stopping pricing with lb = 6
at 50 zero_duals: 40
Switching to elementary pricing
at50, LP obj: 1e+20 n_added_paths: 1
updated lowerbound from 6.0 to 100000000000000000000
at 50 zero_duals: 41
Switching to elementary pricing
at50, LP obj: 1e+20 n_added_paths: 0
updated lowerbound from 6.0 to 100000000000000000000
at 51 zero_duals: 7
Switching to elementary pricing
at51, LP obj: 6.02 n_added_paths: 4
at 51 zero_duals: 7
Switching to elementary pricing
at51, LP obj: 6.019775521111705 n_added_paths: 0
updated lowerbound from 6.0 to 7
Gap too small = 0, stopping pricing with lb = 6
at 52 zero_duals: 6
Switching to elementary pricing
at52, LP obj: 6.035294117647059 n_added_paths: 133
Gap too small = 0, stopping pricing with lb = 6
at 47 zero_duals: 38
Switching to elementary pricing
at47, LP obj: 1e+20 n_added_paths: 8
updated lowerbound from 6.0 to 100000000000000000000
at 47 zero_duals: 39
Switching to elementary pricing
at47, LP obj: 1e+20 n_added_paths: 31
updated lowerbound from 6.0 to 100000000000000000000
at 47 zero_duals: 40
Switching to elementary pricing
at47, LP obj: 1e+20 n_added_paths: 0
updated lowerbound from 6.0 to 100000000000000000000
Gap too small = 0, stopping pricing with lb = 6
Best solution found:
[28, 22, 15, 17, 25, 20, 6, 28] 1.0 1.0
checking cycle [28, 22, 15, 17, 25, 20, 6, 28]
[28, 22, 15, 17, 25, 20, 6, 28] 203 187
[41, 34, 16, 7, 36, 18, 41] 1.0 1.0
checking cycle [41, 34, 16, 7, 36, 18, 41]
[41, 34, 16, 7, 36, 18, 41] 117 117
[30, 19, 24, 14, 29, 3, 2, 30] 1.0 1.0
checking cycle [30, 19, 24, 14, 29, 3, 2, 30]
[30, 19, 24, 14, 29, 3, 2, 30] 190 186
[26, 0, 1, 12, 21, 10, 23, 4, 11, 26] 1.0 1.0
checking cycle [26, 0, 1, 12, 21, 10, 23, 4, 11, 26]
[26, 0, 1, 12, 21, 10, 23, 4, 11, 26] 208 208
[40, 39, 8, 31, 37, 27, 32, 40] 1.0 1.0
checking cycle [40, 39, 8, 31, 37, 27, 32, 40]
[40, 39, 8, 31, 37, 27, 32, 40] 130 126
[38, 13, 35, 33, 5, 9, 38] 1.0 1.0
checking cycle [38, 13, 35, 33, 5, 9, 38]
[38, 13, 35, 33, 5, 9, 38] 136 136
